
Gurobi 9.0.3 (win64) logging started Tue Jan  4 02:27:34 2022

Changed value of parameter LogFile to Results/sslp3_50_40_200_var_BendersBnC.log
   Prev:   Default: 
Changed value of parameter Heuristics to 0.0
   Prev: 0.05  Min: 0.0  Max: 1.0  Default: 0.05
Changed value of parameter lazyConstraints to 1
   Prev: 0  Min: 0  Max: 1  Default: 0
Changed value of parameter timeLimit to 7170.10994553566
   Prev: inf  Min: 0.0  Max: inf  Default: inf
Gurobi Optimizer version 9.0.3 build v9.0.3rc0 (win64)
Optimize a model with 2841 rows, 300 columns and 199053 nonzeros
Model fingerprint: 0x3fa3839d
Variable types: 250 continuous, 50 integer (50 binary)
Coefficient statistics:
  Matrix range     [1e-13, 4e+05]
  Objective range  [5e-03, 4e+01]
  Bounds range     [1e+00, 1e+00]
  RHS range        [4e-16, 5e+03]
Warning: Model contains large matrix coefficient range
         Consider reformulating model or setting NumericFocus parameter
         to avoid numerical issues.
Presolve added 0 rows and 63 columns
Presolve removed 737 rows and 0 columns
Presolve time: 0.22s
Presolved: 2104 rows, 363 columns, 95439 nonzeros
Variable types: 312 continuous, 51 integer (50 binary)

Root relaxation: objective -4.546474e+02, 661 iterations, 0.14 seconds

    Nodes    |    Current Node    |     Objective Bounds      |     Work
 Expl Unexpl |  Obj  Depth IntInf | Incumbent    BestBd   Gap | It/Node Time

     0     0 -454.64741    0   25          - -454.64741      -     -    0s
     0     0 -453.62197    0   22          - -453.62197      -     -    0s
     0     0 -453.33098    0   22          - -453.33098      -     -    0s
     0     0 -453.27317    0   22          - -453.27317      -     -    0s
     0     0 -453.25670    0   21          - -453.25670      -     -    0s
     0     0 -453.25308    0   22          - -453.25308      -     -    0s
     0     0 -453.25221    0   22          - -453.25221      -     -    0s
     0     0 -453.25159    0   22          - -453.25159      -     -    0s
     0     0 -453.24959    0   22          - -453.24959      -     -    0s
     0     0 -453.24754    0   22          - -453.24754      -     -    0s
     0     0 -453.24735    0   22          - -453.24735      -     -    1s
     0     0 -452.93356    0   22          - -452.93356      -     -    1s
     0     0 -452.73988    0   18          - -452.73988      -     -    1s
     0     0 -452.64528    0   19          - -452.64528      -     -    1s
     0     0 -452.60347    0   21          - -452.60347      -     -    1s
     0     0 -452.57014    0   20          - -452.57014      -     -    1s
     0     0 -452.54520    0   20          - -452.54520      -     -    1s
     0     0 -452.53798    0   20          - -452.53798      -     -    1s
     0     0 -452.51539    0   20          - -452.51539      -     -    1s
     0     0 -452.49946    0   20          - -452.49946      -     -    1s
     0     0 -452.49173    0   20          - -452.49173      -     -    1s
     0     0 -452.48934    0   20          - -452.48934      -     -    1s
     0     0 -452.48275    0   19          - -452.48275      -     -    1s
     0     0 -452.47028    0   20          - -452.47028      -     -    1s
     0     0 -452.46416    0   18          - -452.46416      -     -    1s
     0     0 -452.45573    0   18          - -452.45573      -     -    1s
     0     0 -452.45035    0   20          - -452.45035      -     -    1s
     0     0 -452.44946    0   19          - -452.44946      -     -    2s
     0     0 -452.44849    0   18          - -452.44849      -     -    2s
     0     0 -452.44833    0   19          - -452.44833      -     -    2s
     0     0 -452.31541    0   19          - -452.31541      -     -    2s
     0     0 -452.24125    0   20          - -452.24125      -     -    2s
     0     0 -452.20645    0   19          - -452.20645      -     -    2s
     0     0 -452.18450    0   19          - -452.18450      -     -    2s
     0     0 -452.16661    0   20          - -452.16661      -     -    2s
     0     0 -452.13882    0   19          - -452.13882      -     -    2s
     0     0 -452.13157    0   19          - -452.13157      -     -    2s
     0     0 -452.10148    0   20          - -452.10148      -     -    2s
     0     0 -452.09300    0   20          - -452.09300      -     -    2s
     0     0 -452.07697    0   19          - -452.07697      -     -    2s
     0     0 -452.06233    0   19          - -452.06233      -     -    2s
     0     0 -452.05951    0   21          - -452.05951      -     -    2s
     0     0 -452.05520    0   19          - -452.05520      -     -    2s
     0     0 -452.04821    0   19          - -452.04821      -     -    3s
     0     0 -452.04260    0   19          - -452.04260      -     -    3s
     0     0 -452.03637    0   20          - -452.03637      -     -    3s
     0     0 -452.03360    0   20          - -452.03360      -     -    3s
     0     0 -452.03127    0   20          - -452.03127      -     -    3s
     0     0 -452.02801    0   20          - -452.02801      -     -    3s
     0     0 -452.02398    0   19          - -452.02398      -     -    3s
     0     0 -452.02316    0   20          - -452.02316      -     -    3s
     0     0 -452.02008    0   22          - -452.02008      -     -    3s
     0     0 -452.01878    0   22          - -452.01878      -     -    3s
     0     0 -452.01672    0   20          - -452.01672      -     -    3s
     0     0 -452.01410    0   20          - -452.01410      -     -    3s
     0     0 -452.01339    0   22          - -452.01339      -     -    3s
     0     0 -452.01029    0   21          - -452.01029      -     -    3s
     0     0 -452.00991    0   20          - -452.00991      -     -    3s
     0     0 -451.97212    0   19          - -451.97212      -     -    3s
     0     0 -451.94757    0   21          - -451.94757      -     -    3s
     0     0 -451.92088    0   19          - -451.92088      -     -    4s
     0     0 -451.90934    0   21          - -451.90934      -     -    4s
     0     0 -451.89531    0   20          - -451.89531      -     -    4s
     0     0 -451.89046    0   20          - -451.89046      -     -    4s
     0     0 -451.88939    0   19          - -451.88939      -     -    4s
     0     0 -451.88704    0   20          - -451.88704      -     -    4s
     0     0 -451.88396    0   20          - -451.88396      -     -    4s
     0     0 -451.88240    0   20          - -451.88240      -     -    4s
     0     0 -451.88183    0   19          - -451.88183      -     -    4s
     0     0 -451.86621    0   18          - -451.86621      -     -    4s
     0     0 -451.85850    0   19          - -451.85850      -     -    4s
     0     0 -451.85434    0   19          - -451.85434      -     -    4s
     0     0 -451.85194    0   21          - -451.85194      -     -    4s
     0     0 -451.84798    0   22          - -451.84798      -     -    4s
     0     0 -451.84615    0   20          - -451.84615      -     -    4s
     0     0 -451.84418    0   22          - -451.84418      -     -    4s
     0     0 -451.84287    0   22          - -451.84287      -     -    4s
     0     0 -451.83766    0   20          - -451.83766      -     -    4s
     0     0 -451.83645    0   21          - -451.83645      -     -    4s
     0     0 -451.83604    0   22          - -451.83604      -     -    4s
     0     0 -451.83149    0   20          - -451.83149      -     -    5s
     0     0 -451.82863    0   17          - -451.82863      -     -    5s
     0     0 -451.82738    0   19          - -451.82738      -     -    5s
     0     0 -451.82505    0   18          - -451.82505      -     -    5s
     0     0 -451.82365    0   19          - -451.82365      -     -    5s
     0     0 -451.82278    0   19          - -451.82278      -     -    5s
     0     0 -451.80595    0   19          - -451.80595      -     -    5s
     0     0 -451.80216    0   20          - -451.80216      -     -    5s
     0     0 -451.79804    0   17          - -451.79804      -     -    5s
     0     0 -451.79405    0   20          - -451.79405      -     -    5s
     0     0 -451.79277    0   20          - -451.79277      -     -    5s
     0     0 -451.79111    0   20          - -451.79111      -     -    5s
     0     0 -451.78950    0   20          - -451.78950      -     -    5s
     0     0 -451.78854    0   21          - -451.78854      -     -    5s
     0     0 -451.77893    0   18          - -451.77893      -     -    5s
     0     0 -451.76885    0   17          - -451.76885      -     -    5s
     0     0 -451.76429    0   18          - -451.76429      -     -    6s
     0     0 -451.76063    0   17          - -451.76063      -     -    6s
     0     0 -451.75765    0   19          - -451.75765      -     -    6s
     0     0 -451.75335    0   19          - -451.75335      -     -    6s
     0     0 -451.75138    0   19          - -451.75138      -     -    6s
     0     0 -451.74966    0   19          - -451.74966      -     -    6s
     0     0 -451.74867    0   19          - -451.74867      -     -    6s
     0     0 -451.74102    0   18          - -451.74102      -     -    6s
     0     0 -451.73384    0   18          - -451.73384      -     -    6s
     0     0 -451.73094    0   18          - -451.73094      -     -    6s
     0     0 -451.72990    0   18          - -451.72990      -     -    6s
     0     0 -451.72935    0   19          - -451.72935      -     -    6s
     0     0 -451.71832    0   19          - -451.71832      -     -    6s
     0     0 -451.71253    0   19          - -451.71253      -     -    6s
     0     0 -451.70934    0   20          - -451.70934      -     -    6s
     0     0 -451.70215    0   18          - -451.70215      -     -    6s
     0     0 -451.69994    0   19          - -451.69994      -     -    6s
     0     0 -451.69446    0   20          - -451.69446      -     -    6s
     0     0 -451.69278    0   19          - -451.69278      -     -    7s
     0     0 -451.69165    0   20          - -451.69165      -     -    7s
     0     0 -451.69066    0   19          - -451.69066      -     -    7s
     0     0 -451.68925    0   18          - -451.68925      -     -    7s
     0     0 -451.68853    0   19          - -451.68853      -     -    7s
     0     0 -451.68180    0   19          - -451.68180      -     -    7s
     0     0 -451.67680    0   20          - -451.67680      -     -    7s
     0     0 -451.67594    0   20          - -451.67594      -     -    7s
     0     0 -451.66667    0   19          - -451.66667      -     -    7s
     0     0 -451.66596    0   19          - -451.66596      -     -    7s
     0     0 -451.66522    0   20          - -451.66522      -     -    7s
     0     0 -451.66410    0   20          - -451.66410      -     -    7s
     0     0 -451.66049    0   19          - -451.66049      -     -    7s
     0     0 -451.65955    0   20          - -451.65955      -     -    8s
     0     0 -451.64733    0   18          - -451.64733      -     -    8s
     0     0 -451.64307    0   18          - -451.64307      -     -    8s
     0     0 -451.63631    0   19          - -451.63631      -     -    8s
     0     0 -451.63361    0   18          - -451.63361      -     -    8s
     0     0 -451.63220    0   18          - -451.63220      -     -    8s
     0     0 -451.62778    0   18          - -451.62778      -     -    8s
     0     0 -451.62746    0   18          - -451.62746      -     -    8s
     0     0 -451.62716    0   19          - -451.62716      -     -    8s
     0     0 -451.62654    0   18          - -451.62654      -     -    8s
     0     0 -451.62400    0   18          - -451.62400      -     -    8s
     0     0 -451.61365    0   18          - -451.61365      -     -    8s
     0     0 -451.61213    0   17          - -451.61213      -     -    8s
     0     0 -451.61135    0   17          - -451.61135      -     -    8s
     0     0 -451.60503    0   17          - -451.60503      -     -    9s
     0     0 -451.60349    0   19          - -451.60349      -     -    9s
     0     0 -451.60023    0   19          - -451.60023      -     -    9s
     0     0 -451.59895    0   19          - -451.59895      -     -    9s
     0     0 -451.59855    0   19          - -451.59855      -     -    9s
     0     0 -451.59491    0   19          - -451.59491      -     -    9s
     0     0 -451.58954    0   20          - -451.58954      -     -    9s
     0     0 -451.58574    0   19          - -451.58574      -     -    9s
     0     0 -451.58224    0   19          - -451.58224      -     -    9s
     0     0 -451.57680    0   18          - -451.57680      -     -    9s
     0     0 -451.57479    0   22          - -451.57479      -     -    9s
     0     0 -451.57245    0   20          - -451.57245      -     -    9s
     0     0 -451.57037    0   21          - -451.57037      -     -    9s
     0     0 -451.56998    0   20          - -451.56998      -     -    9s
     0     0 -451.56536    0   19          - -451.56536      -     -    9s
     0     0 -451.56072    0   17          - -451.56072      -     -   10s
     0     0 -451.55958    0   22          - -451.55958      -     -   10s
     0     0 -451.55866    0   22          - -451.55866      -     -   10s
     0     0 -451.54882    0   19          - -451.54882      -     -   10s
     0     0 -451.54421    0   19          - -451.54421      -     -   10s
     0     0 -451.54252    0   19          - -451.54252      -     -   10s
     0     0 -451.54153    0   19          - -451.54153      -     -   10s
     0     0 -451.53297    0   20          - -451.53297      -     -   10s
     0     0 -451.52419    0   19          - -451.52419      -     -   10s
     0     0 -451.52300    0   20          - -451.52300      -     -   10s
     0     0 -451.52233    0   20          - -451.52233      -     -   10s
     0     0 -451.52090    0   21          - -451.52090      -     -   10s
     0     0 -451.51981    0   22          - -451.51981      -     -   10s
     0     0 -451.51782    0   20          - -451.51782      -     -   10s
     0     0 -451.51754    0   19          - -451.51754      -     -   10s
     0     0 -451.51711    0   19          - -451.51711      -     -   11s
     0     0 -451.51711    0   19          - -451.51711      -     -   11s
     0     2 -451.51711    0   19          - -451.51711      -     -   11s
*   91    88              50    -257.6094936 -451.49338  75.3%  55.8   16s
*  107    99              50    -260.9012437 -451.49338  73.1%  54.5   20s
*  108    99              50    -291.2549920 -451.49338  55.0%  55.9   21s
   116   103 -449.17683    3    4 -291.25499 -451.30536  55.0%  62.6   25s
   214   184 -442.67753   43    - -291.25499 -451.30536  55.0%  61.5   34s
*  220   185              50    -293.8399920 -451.30536  53.6%  63.3   35s
   238   200 -446.72908    9    9 -293.83999 -451.30536  53.6%  64.3   41s
   248   203     cutoff   50      -293.83999 -451.11693  53.5%  65.1   45s
   268   208     cutoff   50      -293.83999 -450.77834  53.4%  67.1   50s
   331   260 -446.61575   32    6 -293.83999 -450.77834  53.4%  65.3   56s
   343   272 -446.47675   34    4 -293.83999 -450.77834  53.4%  66.2   61s
   385   321 -434.88981   50    - -293.83999 -450.57985  53.3%  61.5   66s
   414   323     cutoff   50      -293.83999 -450.57985  53.3%  59.5   71s
*  425   325              50    -297.9749921 -450.57985  51.2%  59.8   75s
   429   325     cutoff   50      -297.97499 -450.56766  51.2%  60.0   80s
*  438   326              50    -319.0149909 -450.56766  41.2%  60.8   82s
   445   327 -449.97022    6   10 -319.01499 -450.56766  41.2%  61.3   89s
   451   327 -444.20688    7    - -319.01499 -450.56766  41.2%  61.8   93s
   464   340 -449.58896    9   10 -319.01499 -450.56766  41.2%  62.8   95s
   489   365 -449.24234   13   11 -319.01499 -450.56766  41.2%  63.4  100s
   507   387 -415.12714   13    - -319.01499 -450.56766  41.2%  63.6  107s
   531   388 -443.17664   15    2 -319.01499 -450.56766  41.2%  62.9  114s
   533   389     cutoff   50      -319.01499 -450.56766  41.2%  63.1  116s
   543   390 -417.05894   16    2 -319.01499 -450.56766  41.2%  63.1  123s
   548   392     cutoff   50      -319.01499 -450.56766  41.2%  63.3  127s
   554   395 -448.66073   17   11 -319.01499 -450.56766  41.2%  63.4  131s
   559   400 -441.29866   17    3 -319.01499 -450.56766  41.2%  64.0  135s
   575   406 -393.08016   20    - -319.01499 -450.56766  41.2%  63.6  149s
   577   408 -446.09516   12   10 -319.01499 -450.56766  41.2%  63.6  151s
   589   420 -396.33422   24    2 -319.01499 -450.56766  41.2%  63.0  158s
   597   423 -369.63478   26    - -319.01499 -450.56766  41.2%  63.0  165s
   611   435 -396.33214   29    2 -319.01499 -450.56766  41.2%  62.7  173s
   620   442 -396.33102   32    3 -319.01499 -450.56766  41.2%  62.6  180s
   628   447 -396.33030   34    2 -319.01499 -450.56766  41.2%  62.5  185s
   634   450 -442.50799   30    7 -319.01499 -450.56766  41.2%  62.3  190s
   647   464 -363.11609   36    2 -319.01499 -450.56766  41.2%  62.0  197s
   658   473 -363.29288   40    - -319.01499 -450.56766  41.2%  61.8  204s
   666   477 -440.50702   41    4 -319.01499 -450.56766  41.2%  61.4  209s
   677   480 -333.04849   43    2 -319.01499 -450.56766  41.2%  61.1  211s
   690   483     cutoff   50      -319.01499 -450.56766  41.2%  60.5  216s
   699   485 -332.45497   44    2 -319.01499 -449.94967  41.0%  60.5  223s
   721   514     cutoff   50      -319.01499 -449.93901  41.0%  60.0  238s
   756   530 -445.14732    6    2 -319.01499 -449.93901  41.0%  58.3  243s
   781   537 -445.14532   15    5 -319.01499 -449.93901  41.0%  57.6  252s
   799   565 -419.47017   22    2 -319.01499 -449.93901  41.0%  57.6  261s
   826   572 -419.46046   45    2 -319.01499 -449.93901  41.0%  56.5  265s
*  831   555              50    -347.5949905 -449.93901  29.4%  56.7  266s
   837   556     cutoff   50      -347.59499 -449.84859  29.4%  56.8  270s
   842   555 -382.07249   49    2 -347.59499 -449.84593  29.4%  56.9  275s
   862   579     cutoff   50      -347.59499 -449.78764  29.4%  56.7  288s
   886   594 -443.34273   13    2 -347.59499 -449.78585  29.4%  55.9  292s
   895   599 -396.36120   33    2 -347.59499 -449.77649  29.4%  55.8  299s
   917   619 -443.17011   16    2 -347.59499 -449.77649  29.4%  55.0  305s
   964   635     cutoff   50      -347.59499 -449.69672  29.4%  53.5  311s
   981   640     cutoff   50      -347.59499 -449.63383  29.4%  53.7  319s
   988   684 -443.22059    8    3 -347.59499 -449.63383  29.4%  53.8  323s
  1032   685 -442.79874   40   19 -347.59499 -449.63383  29.4%  52.4  336s
  1034   686 -440.93022   41   25 -347.59499 -449.63383  29.4%  52.3  385s
  1035   687 -383.55023   50   21 -347.59499 -449.63383  29.4%  52.2  393s
  1036   688 -419.82584    9   20 -347.59499 -449.63383  29.4%  52.2  395s
  1039   690 -444.46781   46   20 -347.59499 -449.63383  29.4%  52.0  400s
  1044   693 -443.93805   30   20 -347.59499 -449.63383  29.4%  51.8  405s
  1048   696 -446.61276   21   20 -347.59499 -449.63383  29.4%  51.6  410s
  1051   698 -440.37920   47   19 -347.59499 -449.63383  29.4%  51.4  416s
  1052   698 -444.18823   45   21 -347.59499 -449.63383  29.4%  51.4  422s
  1055   700 -445.51513   23   18 -347.59499 -449.63383  29.4%  51.3  426s
  1059   703 -360.39842   25   20 -347.59499 -449.63383  29.4%  51.1  431s
  1062   705 -443.10562   40   21 -347.59499 -449.63383  29.4%  50.9  435s
  1064   706 -413.98244   23   21 -347.59499 -449.63383  29.4%  50.8  441s
  1065   707 -443.98302   31   18 -347.59499 -449.63383  29.4%  50.8  447s
  1066   708 -411.40476   26   18 -347.59499 -449.63383  29.4%  50.7  451s
  1067   708 -399.57781   32   18 -347.59499 -449.63383  29.4%  50.7  457s
  1068   709 -443.16947   29   18 -347.59499 -449.63383  29.4%  50.6  462s
  1069   710 -444.14677   43   19 -347.59499 -449.63383  29.4%  50.6  468s
  1070   710 -444.18823   45   21 -347.59499 -449.63383  29.4%  50.5  473s
  1071   711 -425.28467   30   19 -347.59499 -449.63383  29.4%  50.5  479s
  1072   712 -444.14677   43   18 -347.59499 -449.63383  29.4%  50.4  484s
  1073   712 -444.27687   34   19 -347.59499 -449.63383  29.4%  50.4  490s
  1075   714 -365.93622   34   18 -347.59499 -449.63383  29.4%  50.3  496s
  1076   714 -447.70986   21   17 -347.59499 -449.63383  29.4%  50.3  502s
  1077   715 -425.35003   32   20 -347.59499 -449.63383  29.4%  50.2  508s
  1078   716 -447.40492   13   21 -347.59499 -449.63383  29.4%  50.2  514s
  1079   716 -441.63571   35   23 -347.59499 -449.63383  29.4%  50.1  519s
  1080   717 -441.81338   31   17 -347.59499 -449.63383  29.4%  50.1  533s
  1081   718 -368.54315   25   17 -347.59499 -449.63383  29.4%  50.0  538s
  1083   722 -449.63383   16   17 -347.59499 -449.63383  29.4%  53.7  554s
  1085   721 -449.63383   17   16 -347.59499 -449.63383  29.4%  54.0  566s
  1087   723 -449.63383   17   10 -347.59499 -449.63383  29.4%  54.3  574s
  1089   724 -449.63383   18   17 -347.59499 -449.63383  29.4%  54.5  585s
  1091   724 -449.63383   18   10 -347.59499 -449.63383  29.4%  54.7  591s
  1093   726 -449.63383   19   17 -347.59499 -449.63383  29.4%  55.0  596s
  1098   727 -449.63383   20   16 -347.59499 -449.63383  29.4%  55.3  602s
  1101   726     cutoff   20      -347.59499 -449.63383  29.4%  55.6  605s
  1108   727     cutoff   21      -347.59499 -449.63383  29.4%  56.0  613s
  1112   729 -449.63383   22   13 -347.59499 -449.63383  29.4%  56.1  618s
  1120   733 -449.63383   23   12 -347.59499 -449.63383  29.4%  56.3  623s
  1124   731     cutoff   23      -347.59499 -449.63383  29.4%  56.6  626s
  1130   729 -352.99067   24    - -347.59499 -449.63383  29.4%  56.9  632s
  1136   733     cutoff   24      -347.59499 -449.63383  29.4%  56.9  640s
  1142   732     cutoff   25      -347.59499 -449.63383  29.4%  57.2  645s
  1148   733 -449.63383   26   16 -347.59499 -449.63383  29.4%  57.3  653s
  1153   736     cutoff   26      -347.59499 -449.63383  29.4%  57.4  661s
  1161   735     cutoff   27      -347.59499 -449.63383  29.4%  57.7  667s
  1167   735 -387.91443   28    - -347.59499 -449.63383  29.4%  58.1  675s
  1178   735 -449.14943   31   13 -347.59499 -449.63383  29.4%  58.5  686s
  1187   736 -449.12928   32   14 -347.59499 -449.63383  29.4%  58.8  691s
  1193   735 -449.10486   33   12 -347.59499 -449.63383  29.4%  59.1  697s
  1197   740 -449.01469   34    9 -347.59499 -449.63383  29.4%  59.4  702s
  1212   747     cutoff   35      -347.59499 -449.63383  29.4%  59.6  710s
  1230   740     cutoff   37      -347.59499 -449.63383  29.4%  59.6  718s
  1248   749 -446.92372   39    8 -347.59499 -449.63383  29.4%  59.7  734s
  1267   752 -446.61445   41    6 -347.59499 -449.63383  29.4%  60.1  743s
  1276   752     cutoff   43      -347.59499 -449.63383  29.4%  60.8  745s
  1299   761     cutoff   49      -347.59499 -449.63383  29.4%  62.1  753s
  1315   763 -363.13843   52    - -347.59499 -449.63383  29.4%  62.6  757s
  1342   763 -444.21357   57    2 -347.59499 -449.63383  29.4%  63.5  767s
  1358   771     cutoff   62      -347.59499 -449.63383  29.4%  64.6  779s
  1376   775 -446.53036   20   12 -347.59499 -449.63383  29.4%  65.0  785s
  1398   795     cutoff   24      -347.59499 -449.63383  29.4%  65.3  798s
  1415   794 -445.14375   45    5 -347.59499 -449.63383  29.4%  65.2  806s
  1440   822 -408.51080   35    2 -347.59499 -449.63383  29.4%  64.8  816s
  1483   804     cutoff   67      -347.59499 -446.72601  28.5%  64.2  826s
  1501   808     cutoff   66      -347.59499 -446.61300  28.5%  64.2  842s
  1508   821     cutoff   68      -347.59499 -446.52779  28.5%  64.5  849s
  1535   823 -372.63022   67    2 -347.59499 -446.40072  28.4%  64.6  859s
  1556   842 -363.15888   68    2 -347.59499 -446.33584  28.4%  64.6  872s
  1593   850 -428.31743   24   11 -347.59499 -446.21454  28.4%  64.5  885s
  1627   904 -427.68877   38    3 -347.59499 -446.21454  28.4%  64.3  903s
* 1696   842              66    -350.3599908 -445.98002  27.3%  63.2  916s
  1718   848     cutoff   66      -350.35999 -445.92818  27.3%  63.8  937s
  1758   859 -384.61993   67    2 -350.35999 -445.74222  27.2%  63.6  966s
  1789   877 -444.84536   36    8 -350.35999 -445.73799  27.2%  63.7  981s
  1825   911 -444.20966   52    4 -350.35999 -445.63327  27.2%  63.5  997s
  1897   905     cutoff   64      -350.35999 -445.55100  27.2%  62.9 1021s
  1922   907 -402.84072   66    2 -350.35999 -445.51174  27.2%  63.0 1038s
  1954   908     cutoff   67      -350.35999 -445.45408  27.1%  62.9 1054s
  1963   913     cutoff   33      -350.35999 -445.45408  27.1%  63.0 1066s
  2004   923 -421.47887   47    2 -350.35999 -445.45408  27.1%  63.3 1095s
  2022   925     cutoff   68      -350.35999 -445.45408  27.1%  63.3 1107s
  2033   959 -416.98093   61    4 -350.35999 -445.40888  27.1%  63.3 1115s
  2083   952 -415.65047   65    2 -350.35999 -445.39046  27.1%  62.7 1136s
  2119   955 -443.50480   59    3 -350.35999 -445.25912  27.1%  62.5 1165s
  2138   961     cutoff   67      -350.35999 -445.24474  27.1%  62.7 1181s
  2162   960 -381.61854   67    2 -350.35999 -445.15153  27.1%  62.8 1191s
  2188   966     cutoff   67      -350.35999 -445.14243  27.1%  62.7 1209s
  2231   965 -420.34080   59    - -350.35999 -445.13097  27.0%  62.8 1243s
  2253   966 -416.80529   50    - -350.35999 -445.13097  27.0%  63.1 1256s
  2276   966 -418.02672   62    2 -350.35999 -445.11045  27.0%  63.1 1283s
  2317   978     cutoff   67      -350.35999 -445.00096  27.0%  63.6 1315s
  2367   994 -426.91777   28    7 -350.35999 -444.92173  27.0%  63.7 1347s
  2392   995 -441.97616   21    2 -350.35999 -444.85213  27.0%  63.8 1362s
  2426  1013 -438.73841   54    2 -350.35999 -444.83513  27.0%  63.7 1388s
  2466  1008     cutoff   66      -350.35999 -444.78401  27.0%  63.5 1400s
  2490  1029     cutoff   66      -350.35999 -444.78335  27.0%  63.7 1424s
  2543  1041     cutoff   67      -350.35999 -444.72570  26.9%  63.6 1447s
  2591  1061 -424.44088   38    2 -350.35999 -444.59444  26.9%  63.4 1475s
  2662  1048 -409.36623   66    2 -350.35999 -444.51004  26.9%  63.3 1515s
  2726  1057     cutoff   67      -350.35999 -444.42239  26.8%  63.2 1579s
  2750  1067 -376.21680   67    2 -350.35999 -444.32703  26.8%  63.5 1607s
  2760  1066 -366.70503   67    2 -350.35999 -444.26194  26.8%  63.7 1610s
  2783  1082     cutoff   68      -350.35999 -444.25521  26.8%  63.6 1636s
  2817  1085 -443.46944   43    5 -350.35999 -444.20170  26.8%  63.7 1658s
  2858  1066 -403.48752   66    2 -350.35999 -444.18574  26.8%  63.7 1679s
  2892  1076     cutoff   67      -350.35999 -444.11303  26.8%  64.4 1722s
  2911  1076     cutoff   59      -350.35999 -444.01701  26.7%  64.5 1730s
  2946  1094 -373.37472   67    2 -350.35999 -443.98392  26.7%  64.5 1769s
  2972  1093 -401.77749   66    2 -350.35999 -443.97179  26.7%  64.7 1781s
  3005  1081     cutoff   68      -350.35999 -443.96692  26.7%  64.4 1810s
  3023  1083     cutoff   67      -350.35999 -443.87568  26.7%  64.6 1822s
  3040  1093 -434.80266   58    2 -350.35999 -443.86755  26.7%  64.9 1861s
  3066  1090 -369.86806   67    2 -350.35999 -443.81388  26.7%  65.1 1870s
  3097  1090 -399.46114   65    2 -350.35999 -443.77844  26.7%  65.1 1909s
  3149  1111 -366.16274   67    2 -350.35999 -443.74878  26.7%  65.2 1962s
  3206  1152     cutoff   50      -350.35999 -443.73728  26.7%  64.9 2009s
  3286  1170 -401.33137   66    2 -350.35999 -443.72206  26.6%  64.5 2061s
  3338  1204     cutoff   67      -350.35999 -443.59990  26.6%  64.8 2112s
  3369  1214     cutoff   68      -350.35999 -443.53717  26.6%  64.7 2127s
  3394  1209 -365.63479   67    2 -350.35999 -443.52856  26.6%  64.8 2160s
  3449  1237 -418.50383   58    2 -350.35999 -443.43105  26.6%  65.4 2215s
  3534  1299 -405.39363   66    2 -350.35999 -443.36816  26.5%  65.3 2294s
  3586  1307 -406.14312   66    2 -350.35999 -443.35505  26.5%  65.0 2307s
  3601  1316     cutoff   67      -350.35999 -443.35402  26.5%  65.0 2344s
  3661  1384 -372.61875   67    2 -350.35999 -443.27736  26.5%  65.2 2406s
  3714  1391 -372.94768   67    2 -350.35999 -443.23787  26.5%  64.8 2415s
  3758  1389     cutoff   68      -350.35999 -443.23780  26.5%  64.7 2457s
  3809  1402 -413.75528   61    2 -350.35999 -443.17763  26.5%  64.8 2527s
  3841  1417 -431.87551   51    - -350.35999 -443.00798  26.4%  64.9 2548s
  3861  1432 -397.15814   66    2 -350.35999 -442.99602  26.4%  65.0 2606s
  3900  1447 -431.01477   58    2 -350.35999 -442.97613  26.4%  65.0 2629s
  3937  1488     cutoff   67      -350.35999 -442.84548  26.4%  65.1 2677s
  3986  1496 -412.28129   59    2 -350.35999 -442.72259  26.4%  64.9 2689s
  4008  1517     cutoff   67      -350.35999 -442.70370  26.4%  64.9 2727s
  4026  1519     cutoff   67      -350.35999 -442.67984  26.3%  65.0 2730s
  4063  1541 -362.81896   67    2 -350.35999 -442.66139  26.3%  64.9 2783s
  4089  1552 -374.72048   66    2 -350.35999 -442.63667  26.3%  65.0 2800s
  4104  1593 -417.59198   61    2 -350.35999 -442.55730  26.3%  65.0 2832s
  4164  1649 -401.57642   66    2 -350.35999 -442.54243  26.3%  65.0 2886s
  4278  1674     cutoff   67      -350.35999 -442.39196  26.3%  64.6 2968s
  4332  1713 -369.11337   67    2 -350.35999 -442.28747  26.2%  64.7 3039s
  4353  1719     cutoff   67      -350.35999 -442.23271  26.2%  64.9 3049s
  4403  1770 -424.43925   33    5 -350.35999 -442.21375  26.2%  64.8 3112s
* 4406  1762              36    -354.1349907 -442.21375  24.9%  64.8 3113s
  4497  1796     cutoff   52      -354.13499 -442.15192  24.9%  64.7 3184s
  4588  1869     cutoff   68      -354.13499 -441.96404  24.8%  64.7 3269s
  4717  1949 -430.79073   63    2 -354.13499 -441.87319  24.8%  64.5 3358s
  4864  2034     cutoff   66      -354.13499 -441.83925  24.8%  64.2 3474s
* 4945  2052              66    -354.7399902 -441.81462  24.5%  64.0 3504s
  5006  2097     cutoff   67      -354.73999 -441.79083  24.5%  64.0 3594s
  5130  2128 -370.33342   67    2 -354.73999 -441.76009  24.5%  63.8 3702s
  5207  2164 -424.20240   37    5 -354.73999 -441.54562  24.5%  64.1 3807s
  5239  2175 -404.75532   33    2 -354.73999 -441.54562  24.5%  64.2 3825s
  5274  2206 -398.44375   49    2 -354.73999 -441.49135  24.5%  64.2 3919s
  5327  2227 -414.47273   49    - -354.73999 -441.46631  24.4%  64.2 3951s
  5369  2283 -367.12107   60    2 -354.73999 -441.44442  24.4%  64.2 4030s
  5482  2336     cutoff   68      -354.73999 -441.20361  24.4%  64.2 4134s
  5521  2342 -407.28157   66    2 -354.73999 -441.11418  24.3%  64.2 4143s
  5567  2371 -403.92781   52    3 -354.73999 -441.07933  24.3%  64.2 4238s
  5660  2409 -399.45121   62    2 -354.73999 -440.96583  24.3%  64.2 4353s
  5742  2466 -392.34844   66    2 -354.73999 -440.84787  24.3%  64.4 4457s
  5782  2480     cutoff   50      -354.73999 -440.70950  24.2%  64.6 4478s
  5837  2503     cutoff   67      -354.73999 -440.66525  24.2%  64.4 4557s
  5922  2517     cutoff   55      -354.73999 -440.58556  24.2%  64.6 4673s
  5971  2530     cutoff   66      -354.73999 -440.39542  24.1%  64.6 4693s
  6015  2579     cutoff   64      -354.73999 -440.39097  24.1%  64.8 4815s
  6150  2657     cutoff   66      -354.73999 -440.22054  24.1%  64.7 4974s
* 6203  2654              39    -360.1899907 -440.22054  22.2%  64.7 4996s
  6289  2715     cutoff   67      -360.18999 -440.06823  22.2%  64.6 5108s
  6336  2717 -404.77468   65    2 -360.18999 -439.86174  22.1%  64.6 5111s
  6387  2794     cutoff   66      -360.18999 -439.82216  22.1%  64.5 5215s
  6450  2810     cutoff   58      -360.18999 -439.79193  22.1%  64.5 5240s
  6536  2834     cutoff   47      -360.18999 -439.74393  22.1%  64.3 5356s
  6599  2857 -408.80300   66    2 -360.18999 -439.63176  22.1%  64.2 5389s
  6650  2871 -428.25226   60    2 -360.18999 -439.54699  22.0%  64.2 5488s
  6772  2941     cutoff   66      -360.18999 -439.31517  22.0%  64.2 5645s
  6857  2966 -431.09136   49    2 -360.18999 -439.29617  22.0%  64.0 5681s
  6904  3000     cutoff   67      -360.18999 -439.14592  21.9%  64.1 5794s
  7006  3038 -373.29095   67    2 -360.18999 -438.83558  21.8%  64.1 5910s
  7094  3099 -375.28259   61    2 -360.18999 -438.71472  21.8%  64.2 6043s
  7233  3156     cutoff   67      -360.18999 -438.56991  21.8%  64.1 6176s
  7300  3176 -386.61801   55    2 -360.18999 -438.45504  21.7%  64.0 6204s
  7376  3235     cutoff   67      -360.18999 -438.39201  21.7%  64.0 6320s
  7504  3295 -400.09537   65    2 -360.18999 -438.19315  21.7%  63.8 6464s
  7563  3311     cutoff   67      -360.18999 -438.13619  21.6%  63.8 6486s
  7620  3345 -391.97741   66    2 -360.18999 -437.94184  21.6%  63.7 6606s
  7710  3395     cutoff   67      -360.18999 -437.92424  21.6%  63.7 6731s
  7769  3407     cutoff   67      -360.18999 -437.90046  21.6%  63.7 6749s
  7818  3429 -384.66016   67    - -360.18999 -437.78678  21.5%  63.7 6874s
  7866  3447     cutoff   62      -360.18999 -437.51586  21.5%  63.8 6897s
  7954  3478 -435.90788   41   19 -360.18999 -437.51586  21.5%  63.6 7138s

Explored 7955 nodes (513462 simplex iterations) in 7171.22 seconds
Thread count was 4 (of 4 available processors)

Solution count 10: -360.19 -354.74 -354.135 ... -260.901

Time limit reached
Best objective -3.601899907200e+02, best bound -4.375158590313e+02, gap 21.4681%

User-callback calls 166876, time in user-callback 2951.96 sec
